letting np_cars_plus be 87
letting np_classes be 29
letting np_options be 72
letting quantity_range_min be 4
letting quantity_range_delta be 32
letting maxcars_range_min be 8
letting maxcars_range_delta be 1
letting blksize_delta_range_min be 7
letting blksize_delta_range_delta be 0
letting usage_card_min be 955
letting usage_card_delta be 44